\ SCIP STATISTICS
\   Problem name     : neos-3611689-kaihu
\   Variables        : 421 (88 binary, 0 integer, 0 implicit integer, 333 continuous)
\   Constraints      : 323
Minimize
 Obj: +1 C0333
Subject to
 R0001: +1 C0333 -4 C0334 -3 C0335 -4 C0336 -5 C0337 -1 C0338 -4 C0339 -1 C0340 -3 C0341 -4 C0342 -3 C0343
  -5 C0344 -4 C0345 -1 C0346 -2 C0347 -4 C0348 -3 C0349 -4 C0350 -4 C0351 -5 C0352 -5 C0353 -3 C0354 -5 C0355
  -4 C0356 -1 C0357 -3 C0358 -3 C0359 -3 C0360 -1 C0361 -2 C0362 -4 C0363 -3 C0364 -3 C0365 -1 C0366 -1 C0367
  -3 C0368 -4 C0369 -3 C0370 -5 C0371 -2 C0372 -5 C0373 -5 C0374 -5 C0375 -4 C0376 -5 C0377 -5 C0378 -4 C0379
  -2 C0380 -5 C0381 -3 C0382 -3 C0383 -4 C0384 -4 C0385 -4 C0386 -5 C0387 -1 C0388 -3 C0389 -5 C0390 -1 C0391
  -2 C0392 -4 C0393 -2 C0394 -1 C0395 -4 C0396 -4 C0397 -5 C0398 -3 C0399 -3 C0400 -3 C0401 -5 C0402 -2 C0403
  -2 C0404 -2 C0405 -5 C0406 -1 C0407 -5 C0408 -3 C0409 -3 C0410 -1 C0411 -1 C0412 -2 C0413 -4 C0414 -3 C0415
  -2 C0416 -1 C0417 -4 C0418 -3 C0419 -5 C0420 -4 C0421 = +37
 R0002: -1 C0001 +1 C0002 <= +1.49
 R0003: -1 C0002 +1 C0003 -4 C0345 <= -1.45
 R0004: -1 C0003 +1 C0004 -4 C0384 <= -2.62
 R0005: -1 C0004 +1 C0005 -4 C0392 <= -2.16
 R0006: -1 C0005 +1 C0006 -4 C0365 <= -2.04
 R0007: -1 C0006 +1 C0007 -4 C0364 <= -2.58
 R0008: -1 C0007 +1 C0008 -4 C0337 <= -2.88
 R0009: -1 C0008 +1 C0009 -4 C0382 <= -1.7
 R0010: -1 C0009 +1 C0010 -4 C0402 <= -2.88
 R0011: -1 C0010 +1 C0011 -4 C0366 <= -1.18
 R0012: -1 C0011 +1 C0012 -4 C0351 <= -2.97
 R0013: -1 C0012 +1 C0013 -4 C0418 <= -2.55
 R0014: -1 C0013 +1 C0014 -4 C0343 <= -2.54
 R0015: -1 C0014 +1 C0015 -4 C0385 <= -2.82
 R0016: -1 C0016 +1 C0017 -4 C0336 <= -1.01
 R0017: -1 C0017 +1 C0018 -4 C0397 <= -1.78
 R0018: -1 C0018 +1 C0019 -4 C0346 <= -1.85
 R0019: -1 C0019 +1 C0020 <= +1.28
 R0020: -1 C0020 +1 C0021 -4 C0371 <= -2.13
 R0021: -1 C0021 +1 C0022 -4 C0351 <= -2.96
 R0022: -1 C0022 +1 C0023 -4 C0358 <= -1.41
 R0023: -1 C0023 +1 C0024 <= +2.84
 R0024: -1 C0024 +1 C0025 -4 C0380 <= -2.72
 R0025: -1 C0025 +1 C0026 -4 C0335 <= -1.18
 R0026: -1 C0026 +1 C0027 -4 C0389 <= -2.86
 R0027: -1 C0027 +1 C0028 -4 C0418 <= -2.73
 R0028: -1 C0028 +1 C0029 -4 C0391 <= -2.86
 R0029: -1 C0030 +1 C0031 -4 C0381 <= -1.91
 R0030: -1 C0031 +1 C0032 -4 C0401 <= -2.77
 R0031: -1 C0032 +1 C0033 -4 C0343 <= -1.66
 R0032: -1 C0033 +1 C0034 -4 C0413 <= -1.73
 R0033: -1 C0034 +1 C0035 -4 C0335 <= -1.21
 R0034: -1 C0035 +1 C0036 -4 C0365 <= -1.28
 R0035: -1 C0036 +1 C0037 -4 C0341 <= -2.09
 R0036: -1 C0037 +1 C0038 -4 C0384 <= -2.36
 R0037: -1 C0038 +1 C0039 -4 C0414 <= -2.19
 R0038: -1 C0039 +1 C0040 <= +2.69
 R0039: -1 C0040 +1 C0041 -4 C0350 <= -1.85
 R0040: -1 C0041 +1 C0042 -4 C0392 <= -1.77
 R0041: -1 C0042 +1 C0043 <= +1.74
 R0042: -1 C0044 +1 C0045 -4 C0373 <= -1.32
 R0043: -1 C0045 +1 C0046 -4 C0336 <= -1.37
 R0044: -1 C0046 +1 C0047 -4 C0347 <= -2.89
 R0045: -1 C0047 +1 C0048 -4 C0407 <= -1.17
 R0046: -1 C0048 +1 C0049 <= +2.27
 R0047: -1 C0049 +1 C0050 -4 C0405 <= -1.04
 R0048: -1 C0050 +1 C0051 -4 C0366 <= -2.1
 R0049: -1 C0051 +1 C0052 -4 C0362 <= -2.87
 R0050: -1 C0052 +1 C0053 -4 C0418 <= -1.01
 R0051: -1 C0053 +1 C0054 -4 C0394 <= -1.1
 R0052: -1 C0054 +1 C0055 -4 C0359 <= -2.46
 R0053: -1 C0055 +1 C0056 -4 C0408 <= -1.54
 R0054: -1 C0056 +1 C0057 -4 C0341 <= -1.06
 R0055: -1 C0057 +1 C0058 -4 C0399 <= -2.59
 R0056: -1 C0059 +1 C0060 -4 C0411 <= -1.55
 R0057: -1 C0060 +1 C0061 -4 C0409 <= -1.99
 R0058: -1 C0061 +1 C0062 <= +2.86
 R0059: -1 C0062 +1 C0063 -4 C0359 <= -1.75
 R0060: -1 C0063 +1 C0064 -4 C0339 <= -1.76
 R0061: -1 C0064 +1 C0065 -4 C0349 <= -1.01
 R0062: -1 C0065 +1 C0066 -4 C0421 <= -2.34
 R0063: -1 C0066 +1 C0067 -4 C0412 <= -1.42
 R0064: -1 C0067 +1 C0068 -4 C0405 <= -1.63
 R0065: -1 C0068 +1 C0069 -4 C0367 <= -2.22
 R0066: -1 C0069 +1 C0070 -4 C0343 <= -2.4
 R0067: -1 C0070 +1 C0071 -4 C0389 <= -2.7
 R0068: -1 C0071 +1 C0072 -4 C0362 <= -1.93
 R0069: -1 C0072 +1 C0073 -4 C0391 <= -1.04
 R0070: -1 C0074 +1 C0075 -4 C0404 <= -1.35
 R0071: -1 C0075 +1 C0076 -4 C0371 <= -1.25
 R0072: -1 C0076 +1 C0077 -4 C0416 <= -1.5
 R0073: -1 C0077 +1 C0078 -4 C0344 <= -1.66
 R0074: -1 C0078 +1 C0079 -4 C0405 <= -2.04
 R0075: -1 C0079 +1 C0080 -4 C0337 <= -2.27
 R0076: -1 C0080 +1 C0081 -4 C0397 <= -1.26
 R0077: -1 C0081 +1 C0082 -4 C0339 <= -2.05
 R0078: -1 C0082 +1 C0083 <= +1.1
 R0079: -1 C0083 +1 C0084 <= +1.63
 R0080: -1 C0084 +1 C0085 -4 C0410 <= -1.29
 R0081: -1 C0085 +1 C0086 -4 C0382 <= -2.52
 R0082: -1 C0086 +1 C0087 -4 C0353 <= -1.5
 R0083: -1 C0087 +1 C0088 -4 C0381 <= -2.08
 R0084: -1 C0088 +1 C0089 -4 C0386 <= -1.46
 R0085: -1 C0089 +1 C0090 -4 C0362 <= -2.63
 R0086: -1 C0090 +1 C0091 -4 C0399 <= -2.53
 R0087: -1 C0091 +1 C0092 -4 C0334 <= -1.19
 R0088: -1 C0092 +1 C0093 -4 C0403 <= -1.09
 R0089: -1 C0093 +1 C0094 -4 C0350 <= -1.13
 R0090: -1 C0095 +1 C0096 <= +2.58
 R0091: -1 C0096 +1 C0097 -4 C0371 <= -1.42
 R0092: -1 C0097 +1 C0098 -4 C0421 <= -1.22
 R0093: -1 C0098 +1 C0099 -4 C0374 <= -1.13
 R0094: -1 C0099 +1 C0100 -4 C0355 <= -2.3
 R0095: -1 C0100 +1 C0101 -4 C0367 <= -1.34
 R0096: -1 C0101 +1 C0102 -4 C0385 <= -1.39
 R0097: -1 C0102 +1 C0103 -4 C0392 <= -1.84
 R0098: -1 C0103 +1 C0104 -4 C0387 <= -1.28
 R0099: -1 C0104 +1 C0105 -4 C0363 <= -2.13
 R0100: -1 C0105 +1 C0106 -4 C0368 <= -2.48
 R0101: -1 C0106 +1 C0107 -4 C0399 <= -2.44
 R0102: -1 C0107 +1 C0108 -4 C0369 <= -1.63
 R0103: -1 C0108 +1 C0109 -4 C0409 <= -2.61
 R0104: -1 C0109 +1 C0110 -4 C0416 <= -2.6
 R0105: -1 C0111 +1 C0112 <= +2.06
 R0106: -1 C0112 +1 C0113 -4 C0380 <= -2.31
 R0107: -1 C0113 +1 C0114 -4 C0334 <= -1.98
 R0108: -1 C0114 +1 C0115 -4 C0374 <= -2.31
 R0109: -1 C0115 +1 C0116 -4 C0385 <= -1.34
 R0110: -1 C0116 +1 C0117 -4 C0367 <= -2.49
 R0111: -1 C0117 +1 C0118 -4 C0362 <= -2.63
 R0112: -1 C0118 +1 C0119 -4 C0399 <= -2.49
 R0113: -1 C0119 +1 C0120 -4 C0353 <= -1.07
 R0114: -1 C0120 +1 C0121 -4 C0336 <= -2.64
 R0115: -1 C0121 +1 C0122 -4 C0366 <= -2.39
 R0116: -1 C0122 +1 C0123 -4 C0365 <= -1.94
 R0117: -1 C0123 +1 C0124 -4 C0398 <= -2.71
 R0118: -1 C0124 +1 C0125 -4 C0364 <= -1.34
 R0119: -1 C0126 +1 C0127 <= +1.19
 R0120: -1 C0127 +1 C0128 -4 C0413 <= -1.59
 R0121: -1 C0128 +1 C0129 -4 C0408 <= -2.46
 R0122: -1 C0129 +1 C0130 -4 C0346 <= -2.36
 R0123: -1 C0130 +1 C0131 -4 C0344 <= -2.15
 R0124: -1 C0131 +1 C0132 -4 C0374 <= -1.43
 R0125: -1 C0132 +1 C0133 -4 C0399 <= -2.83
 R0126: -1 C0133 +1 C0134 -4 C0407 <= -1.63
 R0127: -1 C0134 +1 C0135 -4 C0372 <= -1
 R0128: -1 C0135 +1 C0136 -4 C0418 <= -1.43
 R0129: -1 C0136 +1 C0137 -4 C0337 <= -2.71
 R0130: -1 C0137 +1 C0138 -4 C0379 <= -2.6
 R0131: -1 C0138 +1 C0139 <= +2.36
 R0132: -1 C0139 +1 C0140 -4 C0354 <= -1.9
 R0133: -1 C0140 +1 C0141 -4 C0373 <= -1.63
 R0134: -1 C0141 +1 C0142 -4 C0387 <= -1.3
 R0135: -1 C0142 +1 C0143 -4 C0384 <= -1.84
 R0136: -1 C0144 +1 C0145 <= +2.87
 R0137: -1 C0145 +1 C0146 -4 C0363 <= -2.03
 R0138: -1 C0146 +1 C0147 -4 C0393 <= -2.81
 R0139: -1 C0147 +1 C0148 -4 C0350 <= -1.41
 R0140: -1 C0148 +1 C0149 -4 C0400 <= -1.21
 R0141: -1 C0149 +1 C0150 -4 C0398 <= -2.43
 R0142: -1 C0150 +1 C0151 -4 C0375 <= -1.34
 R0143: -1 C0151 +1 C0152 -4 C0369 <= -2.92
 R0144: -1 C0152 +1 C0153 -4 C0342 <= -2.02
 R0145: -1 C0153 +1 C0154 -4 C0378 <= -1.19
 R0146: -1 C0154 +1 C0155 -4 C0389 <= -1.48
 R0147: -1 C0155 +1 C0156 -4 C0408 <= -2.36
 R0148: -1 C0156 +1 C0157 -4 C0382 <= -1.09
 R0149: -1 C0157 +1 C0158 -4 C0361 <= -1.43
 R0150: -1 C0158 +1 C0159 <= +1.66
 R0151: -1 C0159 +1 C0160 -4 C0337 <= -2.4
 R0152: -1 C0160 +1 C0161 -4 C0356 <= -2.23
 R0153: -1 C0015 +1 C0177 <= +0
 R0154: -1 C0029 +1 C0192 <= +0
 R0155: -1 C0043 +1 C0207 <= +0
 R0156: -1 C0058 +1 C0223 <= +0
 R0157: -1 C0073 +1 C0239 <= +0
 R0158: -1 C0094 +1 C0261 <= +0
 R0159: -1 C0110 +1 C0278 <= +0
 R0160: -1 C0125 +1 C0294 <= +0
 R0161: -1 C0143 +1 C0313 <= +0
 R0162: -1 C0161 +1 C0332 <= +0
 R0163: +1 C0162 -1 C0163 <= +2.47
 R0164: +1 C0163 -1 C0164 -4 C0345 <= -2.51
 R0165: +1 C0164 -1 C0165 -4 C0384 <= -1.45
 R0166: +1 C0165 -1 C0166 -4 C0392 <= -2.62
 R0167: +1 C0166 -1 C0167 -4 C0365 <= -2.16
 R0168: +1 C0167 -1 C0168 -4 C0364 <= -2.04
 R0169: +1 C0168 -1 C0169 -4 C0337 <= -2.58
 R0170: +1 C0169 -1 C0170 -4 C0382 <= -2.88
 R0171: +1 C0170 -1 C0171 -4 C0402 <= -1.7
 R0172: +1 C0171 -1 C0172 -4 C0366 <= -2.88
 R0173: +1 C0172 -1 C0173 -4 C0351 <= -1.18
 R0174: +1 C0173 -1 C0174 -4 C0418 <= -2.97
 R0175: +1 C0174 -1 C0175 -4 C0343 <= -2.55
 R0176: +1 C0175 -1 C0176 -4 C0385 <= -2.54
 R0177: +1 C0176 -1 C0177 -4 C0417 <= -2.82
 R0178: +1 C0178 -1 C0179 -4 C0336 <= -1.43
 R0179: +1 C0179 -1 C0180 -4 C0397 <= -1.01
 R0180: +1 C0180 -1 C0181 -4 C0346 <= -1.78
 R0181: +1 C0181 -1 C0182 <= +2.15
 R0182: +1 C0182 -1 C0183 -4 C0371 <= -2.72
 R0183: +1 C0183 -1 C0184 -4 C0351 <= -2.13
 R0184: +1 C0184 -1 C0185 -4 C0358 <= -2.96
 R0185: +1 C0185 -1 C0186 <= +2.59
 R0186: +1 C0186 -1 C0187 -4 C0380 <= -1.16
 R0187: +1 C0187 -1 C0188 -4 C0335 <= -2.72
 R0188: +1 C0188 -1 C0189 -4 C0389 <= -1.18
 R0189: +1 C0189 -1 C0190 -4 C0418 <= -2.86
 R0190: +1 C0190 -1 C0191 -4 C0391 <= -2.73
 R0191: +1 C0191 -1 C0192 -4 C0377 <= -2.86
 R0192: +1 C0193 -1 C0194 -4 C0381 <= -1.13
 R0193: +1 C0194 -1 C0195 -4 C0401 <= -1.91
 R0194: +1 C0195 -1 C0196 -4 C0343 <= -2.77
 R0195: +1 C0196 -1 C0197 -4 C0413 <= -1.66
 R0196: +1 C0197 -1 C0198 -4 C0335 <= -1.73
 R0197: +1 C0198 -1 C0199 -4 C0365 <= -1.21
 R0198: +1 C0199 -1 C0200 -4 C0341 <= -1.28
 R0199: +1 C0200 -1 C0201 -4 C0384 <= -2.09
 R0200: +1 C0201 -1 C0202 -4 C0414 <= -2.36
 R0201: +1 C0202 -1 C0203 <= +1.81
 R0202: +1 C0203 -1 C0204 -4 C0350 <= -1.31
 R0203: +1 C0204 -1 C0205 -4 C0392 <= -1.85
 R0204: +1 C0205 -1 C0206 <= +2.23
 R0205: +1 C0206 -1 C0207 -4 C0370 <= -2.26
 R0206: +1 C0208 -1 C0209 -4 C0373 <= -1.71
 R0207: +1 C0209 -1 C0210 -4 C0336 <= -1.32
 R0208: +1 C0210 -1 C0211 -4 C0347 <= -1.37
 R0209: +1 C0211 -1 C0212 -4 C0407 <= -2.89
 R0210: +1 C0212 -1 C0213 <= +2.83
 R0211: +1 C0213 -1 C0214 -4 C0405 <= -1.73
 R0212: +1 C0214 -1 C0215 -4 C0366 <= -1.04
 R0213: +1 C0215 -1 C0216 -4 C0362 <= -2.1
 R0214: +1 C0216 -1 C0217 -4 C0418 <= -2.87
 R0215: +1 C0217 -1 C0218 -4 C0394 <= -1.01
 R0216: +1 C0218 -1 C0219 -4 C0359 <= -1.1
 R0217: +1 C0219 -1 C0220 -4 C0408 <= -2.46
 R0218: +1 C0220 -1 C0221 -4 C0341 <= -1.54
 R0219: +1 C0221 -1 C0222 -4 C0399 <= -1.06
 R0220: +1 C0222 -1 C0223 -4 C0371 <= -2.59
 R0221: +1 C0224 -1 C0225 -4 C0411 <= -1.06
 R0222: +1 C0225 -1 C0226 -4 C0409 <= -1.55
 R0223: +1 C0226 -1 C0227 <= +2.01
 R0224: +1 C0227 -1 C0228 -4 C0359 <= -1.14
 R0225: +1 C0228 -1 C0229 -4 C0339 <= -1.75
 R0226: +1 C0229 -1 C0230 -4 C0349 <= -1.76
 R0227: +1 C0230 -1 C0231 -4 C0421 <= -1.01
 R0228: +1 C0231 -1 C0232 -4 C0412 <= -2.34
 R0229: +1 C0232 -1 C0233 -4 C0405 <= -1.42
 R0230: +1 C0233 -1 C0234 -4 C0367 <= -1.63
 R0231: +1 C0234 -1 C0235 -4 C0343 <= -2.22
 R0232: +1 C0235 -1 C0236 -4 C0389 <= -2.4
 R0233: +1 C0236 -1 C0237 -4 C0362 <= -2.7
 R0234: +1 C0237 -1 C0238 -4 C0391 <= -1.93
 R0235: +1 C0238 -1 C0239 -4 C0399 <= -1.04
 R0236: +1 C0240 -1 C0241 -4 C0404 <= -1.06
 R0237: +1 C0241 -1 C0242 -4 C0371 <= -1.35
 R0238: +1 C0242 -1 C0243 -4 C0416 <= -1.25
 R0239: +1 C0243 -1 C0244 -4 C0344 <= -1.5
 R0240: +1 C0244 -1 C0245 -4 C0405 <= -1.66
 R0241: +1 C0245 -1 C0246 -4 C0337 <= -2.04
 R0242: +1 C0246 -1 C0247 -4 C0397 <= -2.27
 R0243: +1 C0247 -1 C0248 -4 C0339 <= -1.26
 R0244: +1 C0248 -1 C0249 <= +1.95
 R0245: +1 C0249 -1 C0250 <= +1.1
 R0246: +1 C0250 -1 C0251 -4 C0410 <= -2.37
 R0247: +1 C0251 -1 C0252 -4 C0382 <= -1.29
 R0248: +1 C0252 -1 C0253 -4 C0353 <= -2.52
 R0249: +1 C0253 -1 C0254 -4 C0381 <= -1.5
 R0250: +1 C0254 -1 C0255 -4 C0386 <= -2.08
 R0251: +1 C0255 -1 C0256 -4 C0362 <= -1.46
 R0252: +1 C0256 -1 C0257 -4 C0399 <= -2.63
 R0253: +1 C0257 -1 C0258 -4 C0334 <= -2.53
 R0254: +1 C0258 -1 C0259 -4 C0403 <= -1.19
 R0255: +1 C0259 -1 C0260 -4 C0350 <= -1.09
 R0256: +1 C0260 -1 C0261 <= +2.87
 R0257: +1 C0262 -1 C0263 <= +1.35
 R0258: +1 C0263 -1 C0264 -4 C0371 <= -1.42
 R0259: +1 C0264 -1 C0265 -4 C0421 <= -1.42
 R0260: +1 C0265 -1 C0266 -4 C0374 <= -1.22
 R0261: +1 C0266 -1 C0267 -4 C0355 <= -1.13
 R0262: +1 C0267 -1 C0268 -4 C0367 <= -2.3
 R0263: +1 C0268 -1 C0269 -4 C0385 <= -1.34
 R0264: +1 C0269 -1 C0270 -4 C0392 <= -1.39
 R0265: +1 C0270 -1 C0271 -4 C0387 <= -1.84
 R0266: +1 C0271 -1 C0272 -4 C0363 <= -1.28
 R0267: +1 C0272 -1 C0273 -4 C0368 <= -2.13
 R0268: +1 C0273 -1 C0274 -4 C0399 <= -2.48
 R0269: +1 C0274 -1 C0275 -4 C0369 <= -2.44
 R0270: +1 C0275 -1 C0276 -4 C0409 <= -1.63
 R0271: +1 C0276 -1 C0277 -4 C0416 <= -2.61
 R0272: +1 C0277 -1 C0278 -4 C0339 <= -2.6
 R0273: +1 C0279 -1 C0280 <= +1.46
 R0274: +1 C0280 -1 C0281 -4 C0380 <= -1.94
 R0275: +1 C0281 -1 C0282 -4 C0334 <= -2.31
 R0276: +1 C0282 -1 C0283 -4 C0374 <= -1.98
 R0277: +1 C0283 -1 C0284 -4 C0385 <= -2.31
 R0278: +1 C0284 -1 C0285 -4 C0367 <= -1.34
 R0279: +1 C0285 -1 C0286 -4 C0362 <= -2.49
 R0280: +1 C0286 -1 C0287 -4 C0399 <= -2.63
 R0281: +1 C0287 -1 C0288 -4 C0353 <= -2.49
 R0282: +1 C0288 -1 C0289 -4 C0336 <= -1.07
 R0283: +1 C0289 -1 C0290 -4 C0366 <= -2.64
 R0284: +1 C0290 -1 C0291 -4 C0365 <= -2.39
 R0285: +1 C0291 -1 C0292 -4 C0398 <= -1.94
 R0286: +1 C0292 -1 C0293 -4 C0364 <= -2.71
 R0287: +1 C0293 -1 C0294 -4 C0408 <= -1.34
 R0288: +1 C0295 -1 C0296 <= +1.29
 R0289: +1 C0296 -1 C0297 -4 C0413 <= -2.81
 R0290: +1 C0297 -1 C0298 -4 C0408 <= -1.59
 R0291: +1 C0298 -1 C0299 -4 C0346 <= -2.46
 R0292: +1 C0299 -1 C0300 -4 C0344 <= -2.36
 R0293: +1 C0300 -1 C0301 -4 C0374 <= -2.15
 R0294: +1 C0301 -1 C0302 -4 C0399 <= -1.43
 R0295: +1 C0302 -1 C0303 -4 C0407 <= -2.83
 R0296: +1 C0303 -1 C0304 -4 C0372 <= -1.63
 R0297: +1 C0304 -1 C0305 -4 C0418 <= -1
 R0298: +1 C0305 -1 C0306 -4 C0337 <= -1.43
 R0299: +1 C0306 -1 C0307 -4 C0379 <= -2.71
 R0300: +1 C0307 -1 C0308 <= +1.4
 R0301: +1 C0308 -1 C0309 -4 C0354 <= -1.64
 R0302: +1 C0309 -1 C0310 -4 C0373 <= -1.9
 R0303: +1 C0310 -1 C0311 -4 C0387 <= -1.63
 R0304: +1 C0311 -1 C0312 -4 C0384 <= -1.3
 R0305: +1 C0312 -1 C0313 -4 C0347 <= -1.84
 R0306: +1 C0314 -1 C0315 <= +1.46
 R0307: +1 C0315 -1 C0316 -4 C0363 <= -1.13
 R0308: +1 C0316 -1 C0317 -4 C0393 <= -2.03
 R0309: +1 C0317 -1 C0318 -4 C0350 <= -2.81
 R0310: +1 C0318 -1 C0319 -4 C0400 <= -1.41
 R0311: +1 C0319 -1 C0320 -4 C0398 <= -1.21
 R0312: +1 C0320 -1 C0321 -4 C0375 <= -2.43
 R0313: +1 C0321 -1 C0322 -4 C0369 <= -1.34
 R0314: +1 C0322 -1 C0323 -4 C0342 <= -2.92
 R0315: +1 C0323 -1 C0324 -4 C0378 <= -2.02
 R0316: +1 C0324 -1 C0325 -4 C0389 <= -1.19
 R0317: +1 C0325 -1 C0326 -4 C0408 <= -1.48
 R0318: +1 C0326 -1 C0327 -4 C0382 <= -2.36
 R0319: +1 C0327 -1 C0328 -4 C0361 <= -1.09
 R0320: +1 C0328 -1 C0329 <= +2.57
 R0321: +1 C0329 -1 C0330 -4 C0337 <= -2.34
 R0322: +1 C0330 -1 C0331 -4 C0356 <= -2.4
 R0323: +1 C0331 -1 C0332 -4 C0345 <= -2.23
Bounds
 0 <= C0420 <= 1
 0 <= C0334 <= 1
 0 <= C0335 <= 1
 0 <= C0336 <= 1
 0 <= C0337 <= 1
 0 <= C0338 <= 1
 0 <= C0339 <= 1
 0 <= C0340 <= 1
 0 <= C0341 <= 1
 0 <= C0342 <= 1
 0 <= C0343 <= 1
 0 <= C0344 <= 1
 0 <= C0345 <= 1
 0 <= C0346 <= 1
 0 <= C0347 <= 1
 0 <= C0348 <= 1
 0 <= C0349 <= 1
 0 <= C0350 <= 1
 0 <= C0351 <= 1
 0 <= C0352 <= 1
 0 <= C0353 <= 1
 0 <= C0354 <= 1
 0 <= C0355 <= 1
 0 <= C0356 <= 1
 0 <= C0357 <= 1
 0 <= C0358 <= 1
 0 <= C0359 <= 1
 0 <= C0360 <= 1
 0 <= C0361 <= 1
 0 <= C0362 <= 1
 0 <= C0363 <= 1
 0 <= C0364 <= 1
 0 <= C0365 <= 1
 0 <= C0366 <= 1
 0 <= C0367 <= 1
 0 <= C0368 <= 1
 0 <= C0369 <= 1
 0 <= C0370 <= 1
 0 <= C0371 <= 1
 0 <= C0372 <= 1
 0 <= C0373 <= 1
 0 <= C0374 <= 1
 0 <= C0375 <= 1
 0 <= C0376 <= 1
 0 <= C0377 <= 1
 0 <= C0378 <= 1
 0 <= C0379 <= 1
 0 <= C0380 <= 1
 0 <= C0381 <= 1
 0 <= C0382 <= 1
 0 <= C0383 <= 1
 0 <= C0384 <= 1
 0 <= C0385 <= 1
 0 <= C0386 <= 1
 0 <= C0387 <= 1
 0 <= C0388 <= 1
 0 <= C0389 <= 1
 0 <= C0390 <= 1
 0 <= C0391 <= 1
 0 <= C0392 <= 1
 0 <= C0393 <= 1
 0 <= C0394 <= 1
 0 <= C0395 <= 1
 0 <= C0396 <= 1
 0 <= C0397 <= 1
 0 <= C0398 <= 1
 0 <= C0399 <= 1
 0 <= C0400 <= 1
 0 <= C0401 <= 1
 0 <= C0402 <= 1
 0 <= C0403 <= 1
 0 <= C0404 <= 1
 0 <= C0405 <= 1
 0 <= C0406 <= 1
 0 <= C0407 <= 1
 0 <= C0408 <= 1
 0 <= C0409 <= 1
 0 <= C0410 <= 1
 0 <= C0411 <= 1
 0 <= C0412 <= 1
 0 <= C0413 <= 1
 0 <= C0414 <= 1
 0 <= C0415 <= 1
 0 <= C0416 <= 1
 0 <= C0417 <= 1
 0 <= C0418 <= 1
 0 <= C0419 <= 1
 0 <= C0421 <= 1
 0 <= C0089 <= 7.54
 0 <= C0090 <= 6.37
 0 <= C0091 <= 6.47
 0 <= C0092 <= 7.81
 0 <= C0093 <= 7.91
 0 <= C0094 <= 7.87
 0 <= C0095 <= 1.35
 0 <= C0096 <= 7.58
 0 <= C0097 <= 7.58
 0 <= C0098 <= 7.78
 0 <= C0099 <= 7.87
 0 <= C0100 <= 6.7
 0 <= C0101 <= 7.66
 0 <= C0102 <= 7.61
 0 <= C0103 <= 7.16
 0 <= C0104 <= 7.72
 0 <= C0105 <= 6.87
 0 <= C0106 <= 6.52
 0 <= C0107 <= 6.56
 0 <= C0108 <= 7.37
 0 <= C0109 <= 6.39
 0 <= C0110 <= 6.4
 0 <= C0111 <= 1.46
 0 <= C0112 <= 7.06
 0 <= C0113 <= 6.69
 0 <= C0114 <= 7.02
 0 <= C0115 <= 6.69
 0 <= C0116 <= 7.66
 0 <= C0117 <= 6.51
 0 <= C0118 <= 6.37
 0 <= C0119 <= 6.51
 0 <= C0120 <= 7.93
 0 <= C0121 <= 6.36
 0 <= C0122 <= 6.61
 0 <= C0123 <= 7.06
 0 <= C0124 <= 6.29
 0 <= C0125 <= 7.66
 0 <= C0126 <= 1.29
 0 <= C0127 <= 6.19
 0 <= C0128 <= 7.41
 0 <= C0129 <= 6.54
 0 <= C0130 <= 6.64
 0 <= C0131 <= 6.85
 0 <= C0132 <= 7.57
 0 <= C0133 <= 6.17
 0 <= C0134 <= 7.37
 0 <= C0135 <= 8
 0 <= C0136 <= 7.57
 0 <= C0137 <= 6.29
 0 <= C0138 <= 6.4
 0 <= C0139 <= 7.36
 0 <= C0140 <= 7.1
 0 <= C0141 <= 7.37
 0 <= C0142 <= 7.7
 0 <= C0143 <= 7.16
 0 <= C0144 <= 1.46
 0 <= C0145 <= 7.87
 0 <= C0146 <= 6.97
 0 <= C0147 <= 6.19
 0 <= C0148 <= 7.59
 0 <= C0149 <= 7.79
 0 <= C0150 <= 6.57
 0 <= C0151 <= 7.66
 0 <= C0152 <= 6.08
 0 <= C0153 <= 6.98
 0 <= C0154 <= 7.81
 0 <= C0155 <= 7.52
 0 <= C0156 <= 6.64
 0 <= C0157 <= 7.91
 0 <= C0158 <= 7.57
 0 <= C0159 <= 6.66
 0 <= C0160 <= 6.6
 0 <= C0161 <= 6.77
 0 <= C0162 <= 7.47
 0 <= C0163 <= 6.49
 0 <= C0164 <= 7.55
 0 <= C0165 <= 6.38
 0 <= C0166 <= 6.84
 0 <= C0167 <= 6.96
 0 <= C0168 <= 6.42
 0 <= C0169 <= 6.12
 0 <= C0170 <= 7.3
 0 <= C0171 <= 6.12
 0 <= C0172 <= 7.82
 0 <= C0173 <= 6.03
 0 <= C0174 <= 6.45
 0 <= C0175 <= 6.46
 0 <= C0176 <= 6.18
 0 <= C0177 <= 9
 0 <= C0178 <= 7.57
 0 <= C0179 <= 7.99
 0 <= C0180 <= 7.22
 0 <= C0181 <= 7.15
 0 <= C0182 <= 6.28
 0 <= C0183 <= 6.87
 0 <= C0184 <= 6.04
 0 <= C0185 <= 7.59
 0 <= C0186 <= 7.84
 0 <= C0187 <= 6.28
 0 <= C0188 <= 7.82
 0 <= C0189 <= 6.14
 0 <= C0190 <= 6.27
 0 <= C0191 <= 6.14
 0 <= C0192 <= 9
 0 <= C0193 <= 7.87
 0 <= C0194 <= 7.09
 0 <= C0195 <= 6.23
 0 <= C0196 <= 7.34
 0 <= C0197 <= 7.27
 0 <= C0198 <= 7.79
 0 <= C0199 <= 7.72
 0 <= C0200 <= 6.91
 0 <= C0201 <= 6.64
 0 <= C0202 <= 6.81
 0 <= C0203 <= 7.69
 0 <= C0204 <= 7.15
 0 <= C0205 <= 7.23
 0 <= C0206 <= 6.74
 0 <= C0207 <= 9
 0 <= C0208 <= 7.29
 0 <= C0209 <= 7.68
 0 <= C0210 <= 7.63
 0 <= C0211 <= 6.11
 0 <= C0212 <= 7.83
 0 <= C0213 <= 7.27
 0 <= C0214 <= 7.96
 0 <= C0215 <= 6.9
 0 <= C0216 <= 6.13
 0 <= C0217 <= 7.99
 0 <= C0218 <= 7.9
 0 <= C0219 <= 6.54
 0 <= C0220 <= 7.46
 0 <= C0221 <= 7.94
 0 <= C0222 <= 6.41
 0 <= C0223 <= 9
 0 <= C0224 <= 7.94
 0 <= C0225 <= 7.45
 0 <= C0226 <= 7.01
 0 <= C0227 <= 7.86
 0 <= C0228 <= 7.25
 0 <= C0229 <= 7.24
 0 <= C0230 <= 7.99
 0 <= C0231 <= 6.66
 0 <= C0232 <= 7.58
 0 <= C0233 <= 7.37
 0 <= C0234 <= 6.78
 0 <= C0235 <= 6.6
 0 <= C0236 <= 6.3
 0 <= C0237 <= 7.07
 0 <= C0238 <= 7.96
 0 <= C0239 <= 9
 0 <= C0240 <= 7.94
 0 <= C0241 <= 7.65
 0 <= C0242 <= 7.75
 0 <= C0243 <= 7.5
 0 <= C0244 <= 7.34
 0 <= C0245 <= 6.96
 0 <= C0246 <= 6.73
 0 <= C0247 <= 7.74
 0 <= C0248 <= 6.95
 0 <= C0249 <= 6.1
 0 <= C0250 <= 6.63
 0 <= C0251 <= 7.71
 0 <= C0252 <= 6.48
 0 <= C0253 <= 7.5
 0 <= C0254 <= 6.92
 0 <= C0255 <= 7.54
 0 <= C0256 <= 6.37
 0 <= C0257 <= 6.47
 0 <= C0258 <= 7.81
 0 <= C0259 <= 7.91
 0 <= C0260 <= 7.87
 0 <= C0261 <= 9
 0 <= C0262 <= 6.35
 0 <= C0263 <= 7.58
 0 <= C0264 <= 7.58
 0 <= C0265 <= 7.78
 0 <= C0266 <= 7.87
 0 <= C0267 <= 6.7
 0 <= C0268 <= 7.66
 0 <= C0269 <= 7.61
 0 <= C0270 <= 7.16
 0 <= C0271 <= 7.72
 0 <= C0272 <= 6.87
 0 <= C0273 <= 6.52
 0 <= C0274 <= 6.56
 0 <= C0275 <= 7.37
 0 <= C0276 <= 6.39
 0 <= C0277 <= 6.4
 0 <= C0278 <= 9
 0 <= C0279 <= 6.46
 0 <= C0280 <= 7.06
 0 <= C0281 <= 6.69
 0 <= C0282 <= 7.02
 0 <= C0283 <= 6.69
 0 <= C0284 <= 7.66
 0 <= C0285 <= 6.51
 0 <= C0286 <= 6.37
 0 <= C0287 <= 6.51
 0 <= C0288 <= 7.93
 0 <= C0289 <= 6.36
 0 <= C0290 <= 6.61
 0 <= C0291 <= 7.06
 0 <= C0292 <= 6.29
 0 <= C0293 <= 7.66
 0 <= C0294 <= 9
 0 <= C0295 <= 6.29
 0 <= C0296 <= 6.19
 0 <= C0297 <= 7.41
 0 <= C0298 <= 6.54
 0 <= C0299 <= 6.64
 0 <= C0300 <= 6.85
 0 <= C0301 <= 7.57
 0 <= C0302 <= 6.17
 0 <= C0303 <= 7.37
 0 <= C0304 <= 8
 0 <= C0305 <= 7.57
 0 <= C0306 <= 6.29
 0 <= C0307 <= 6.4
 0 <= C0308 <= 7.36
 0 <= C0309 <= 7.1
 0 <= C0310 <= 7.37
 0 <= C0311 <= 7.7
 0 <= C0312 <= 7.16
 0 <= C0313 <= 9
 0 <= C0314 <= 6.46
 0 <= C0315 <= 7.87
 0 <= C0316 <= 6.97
 0 <= C0317 <= 6.19
 0 <= C0318 <= 7.59
 0 <= C0319 <= 7.79
 0 <= C0320 <= 6.57
 0 <= C0321 <= 7.66
 0 <= C0322 <= 6.08
 0 <= C0323 <= 6.98
 0 <= C0324 <= 7.81
 0 <= C0325 <= 7.52
 0 <= C0326 <= 6.64
 0 <= C0327 <= 7.91
 0 <= C0328 <= 7.57
 0 <= C0329 <= 6.66
 0 <= C0330 <= 6.6
 0 <= C0331 <= 6.77
 0 <= C0332 <= 9
 C0333 free
 0 <= C0001 <= 2.47
 0 <= C0002 <= 6.49
 0 <= C0003 <= 7.55
 0 <= C0004 <= 6.38
 0 <= C0005 <= 6.84
 0 <= C0006 <= 6.96
 0 <= C0007 <= 6.42
 0 <= C0008 <= 6.12
 0 <= C0009 <= 7.3
 0 <= C0010 <= 6.12
 0 <= C0011 <= 7.82
 0 <= C0012 <= 6.03
 0 <= C0013 <= 6.45
 0 <= C0014 <= 6.46
 0 <= C0015 <= 6.18
 0 <= C0016 <= 2.57
 0 <= C0017 <= 7.99
 0 <= C0018 <= 7.22
 0 <= C0019 <= 7.15
 0 <= C0020 <= 6.28
 0 <= C0021 <= 6.87
 0 <= C0022 <= 6.04
 0 <= C0023 <= 7.59
 0 <= C0024 <= 7.84
 0 <= C0025 <= 6.28
 0 <= C0026 <= 7.82
 0 <= C0027 <= 6.14
 0 <= C0028 <= 6.27
 0 <= C0029 <= 6.14
 0 <= C0030 <= 2.87
 0 <= C0031 <= 7.09
 0 <= C0032 <= 6.23
 0 <= C0033 <= 7.34
 0 <= C0034 <= 7.27
 0 <= C0035 <= 7.79
 0 <= C0036 <= 7.72
 0 <= C0037 <= 6.91
 0 <= C0038 <= 6.64
 0 <= C0039 <= 6.81
 0 <= C0040 <= 7.69
 0 <= C0041 <= 7.15
 0 <= C0042 <= 7.23
 0 <= C0043 <= 6.74
 0 <= C0044 <= 2.29
 0 <= C0045 <= 7.68
 0 <= C0046 <= 7.63
 0 <= C0047 <= 6.11
 0 <= C0048 <= 7.83
 0 <= C0049 <= 7.27
 0 <= C0050 <= 7.96
 0 <= C0051 <= 6.9
 0 <= C0052 <= 6.13
 0 <= C0053 <= 7.99
 0 <= C0054 <= 7.9
 0 <= C0055 <= 6.54
 0 <= C0056 <= 7.46
 0 <= C0057 <= 7.94
 0 <= C0058 <= 6.41
 0 <= C0059 <= 2.94
 0 <= C0060 <= 7.45
 0 <= C0061 <= 7.01
 0 <= C0062 <= 7.86
 0 <= C0063 <= 7.25
 0 <= C0064 <= 7.24
 0 <= C0065 <= 7.99
 0 <= C0066 <= 6.66
 0 <= C0067 <= 7.58
 0 <= C0068 <= 7.37
 0 <= C0069 <= 6.78
 0 <= C0070 <= 6.6
 0 <= C0071 <= 6.3
 0 <= C0072 <= 7.07
 0 <= C0073 <= 7.96
 0 <= C0074 <= 2.94
 0 <= C0075 <= 7.65
 0 <= C0076 <= 7.75
 0 <= C0077 <= 7.5
 0 <= C0078 <= 7.34
 0 <= C0079 <= 6.96
 0 <= C0080 <= 6.73
 0 <= C0081 <= 7.74
 0 <= C0082 <= 6.95
 0 <= C0083 <= 6.1
 0 <= C0084 <= 6.63
 0 <= C0085 <= 7.71
 0 <= C0086 <= 6.48
 0 <= C0087 <= 7.5
 0 <= C0088 <= 6.92
Binaries
 C0420 C0334 C0335 C0336 C0337 C0338 C0339 C0340 C0341 C0342 C0343 C0344 C0345 C0346 C0347 C0348 C0349
 C0350 C0351 C0352 C0353 C0354 C0355 C0356 C0357 C0358 C0359 C0360 C0361 C0362 C0363 C0364 C0365 C0366
 C0367 C0368 C0369 C0370 C0371 C0372 C0373 C0374 C0375 C0376 C0377 C0378 C0379 C0380 C0381 C0382 C0383
 C0384 C0385 C0386 C0387 C0388 C0389 C0390 C0391 C0392 C0393 C0394 C0395 C0396 C0397 C0398 C0399 C0400
 C0401 C0402 C0403 C0404 C0405 C0406 C0407 C0408 C0409 C0410 C0411 C0412 C0413 C0414 C0415 C0416 C0417
 C0418 C0419 C0421
End
